; benchmark generated from python API
(set-info :status unknown)
(declare-datatypes ((IntState 0)) (((Mk1 (val1 Int)) (Mk2 (val2 Int)))))
 (declare-fun c_main_~z~0 () Int)
(declare-fun c_main_~x~0 () Int)
(declare-fun c_main_~y~0 () Int)
(assert
 (let (($x136 (exists ((|v_main_#t~nondet2_5_st| IntState) (val!136 Int) )(let (($x112 (not (= |v_main_#t~nondet2_5_st| (Mk1 val!136)))))
 (and $x112 (= (* 8 (val2 |v_main_#t~nondet2_5_st|)) c_main_~z~0))))
 ))
 (let (($x56 (exists ((|v_main_#t~nondet0_5_st| IntState) (val!135 Int) )(let (($x112 (not (= |v_main_#t~nondet0_5_st| (Mk1 val!135)))))
 (and $x112 (= (* 2 (val2 |v_main_#t~nondet0_5_st|)) c_main_~x~0))))
 ))
 (let (($x38 (exists ((|v_main_#t~nondet1_5_st| IntState) (val!134 Int) )(let (($x112 (not (= |v_main_#t~nondet1_5_st| (Mk1 val!134)))))
 (and $x112 (= (* 4 (val2 |v_main_#t~nondet1_5_st|)) c_main_~y~0))))
 ))
 (let (($x148 (exists ((|v_main_#t~nondet0_5| Int) )(exists ((|v_main_#t~nondet0_6| Int) )(= (+ (* 2 |v_main_#t~nondet0_5|) (* 2 |v_main_#t~nondet0_6|)) c_main_~x~0))
 )
 ))
 (let (($x209 (exists ((|v_main_#t~nondet1_6| Int) )(exists ((|v_main_#t~nondet1_5| Int) )(= (+ (* 4 |v_main_#t~nondet1_6|) (* 4 |v_main_#t~nondet1_5|)) c_main_~y~0))
 )
 ))
 (let (($x141 (exists ((|v_main_#t~nondet2_5| Int) )(exists ((|v_main_#t~nondet2_6| Int) )(= c_main_~z~0 (+ (* 8 |v_main_#t~nondet2_5|) (* 8 |v_main_#t~nondet2_6|))))
 )
 ))
 (and (and $x141 $x209 $x148) (not (and $x38 $x56 $x136))))))))))
(check-sat)
